
Gurobi 9.5.2 (win64) logging started Tue Jan 23 16:25:57 2024

Set parameter LogFile to value "./ccga_results/2024-01-23 16-25-55-896/MSP_TimeStampConvert_gurobi_log.txt"
Set parameter TimeLimit to value 7200
